243 300 27 37 87 64 51 27 34 66 69 56 77 9 16 37 68 57 45 25 31 19 76 88 57 11 40 7 18 65 8 47 7 34 35 93 49 85 20 34 51 40 90 27 49 5 15 68 13 60 92 95 78 67 34 86 29 74 44 99 38 52 45 45 37 31 89 86 68 60 71 18 100 60 96 100 16 11 67 80 22 10 27 51 77 60 37 5 33 80 55 23 83 99 19 20 82 7 57 49 19 27 18 70 39 13 69 6 75 87 86 48 96 12 99 24 71 35 81 56 66 35 78 49 86 96 20 67 54 76 67 72 2 84 41 92 48 61 98 23 99 83 70 47 46 68 22 68 54 2 23 20 89 52 20 74 99 39 92 53 66 58 76 67 93 69 59 40 81 8 62 80 90 84 78 87 3 99 54 57 53 29 28 41 80 47 66 31 37 57 83 2 66 10 20 58 78 30 97 59 37 11 90 78 46 67 64 48 17 70 56 69 98 35 61 29 81 26 59 69 34 93 70 99 3 42 56 32 71 5 90 8 15 31 85 60 49 1 59 66 70 67 86 19 1 